174 29 
167 29 
162 28 
168 28 
163 28 
162 28 
162 28 
162 28 
162 28 
162 28 
162 28 
161 28 
162 28 
162 28 
162 28 
162 28 
162 28 
162 28 
162 28 
161 28 
162 28 
162 28 
162 28 
174 28 
162 28 
162 28 
162 28 
162 28 
162 28 
162 28 
163 28 
160 28 
161 28 
161 28 
160 28 
160 28 
166 28 
160 28 
160 28 
161 28 
160 28 
160 28 
160 28 
160 28 
160 28 
160 28 
160 28 
160 28 
160 28 
160 28 
160 28 
160 28 
160 28 
161 28 
160 28 
160 28 
169 29 
161 28 
160 28 
189 54 
171 44 
166 31 
176 32 
163 30 
163 30 
162 30 
162 30 
162 29 
162 30 
162 30 
162 29 
162 29 
162 29 
162 28 
162 28 
162 28 
162 28 
162 28 
162 28 
162 28 
162 28 
162 33 
163 28 
162 28 
162 28 
162 28 
162 28 
162 28 
163 28 
177 39 
167 35 
164 28 
164 28 
164 28 
164 28 
164 28 
170 28 
164 28 
164 28 
167 31 
161 31 
159 31 
159 31 
159 31 
159 31 
159 31 
159 31 
159 31 
159 31 
159 31 
159 31 
159 31 
168 31 
159 31 
159 31 
158 31 
159 31 
159 31 
159 31 
159 31 
158 31 
159 31 
159 31 
159 31 
159 31 
159 31 
159 31 
159 31 
159 31 
167 31 
160 31 
159 31 
159 31 
159 31 
159 31 
159 31 
159 31 
159 31 
159 31 
159 31 
159 31 
159 31 
159 31 
159 31 
159 31 
159 31 
159 31 
159 31 
164 31 
159 31 
159 31 
159 31 
159 31 
159 31 
159 31 
158 31 
159 31 
159 31 
159 31 
162 31 
160 31 
159 31 
159 31 
159 31 
159 31 
163 31 
159 31 
159 31 
159 31 
159 31 
159 31 
159 31 
159 31 
159 31 
159 31 
159 31 
159 31 
158 31 
159 31 
159 31 
159 31 
159 31 
158 31 
159 31 
159 31 
162 31 
159 31 
158 31 
159 31 
161 31 
159 31 
159 31 
159 31 
159 31 
159 31 
159 31 
159 31 
159 31 
158 31 
